
Gurobi 11.0.1 (win64) logging started Mon May 13 15:37:30 2024

Set parameter LogFile to value "output/solver_log18.txt"
Gurobi Optimizer version 11.0.1 build v11.0.1rc0 (win64 - Windows 11.0 (22631.2))

CPU model: 11th Gen Intel(R) Core(TM) i7-1165G7 @ 2.80GHz, instruction set [SSE2|AVX|AVX2|AVX512]
Thread count: 4 physical cores, 8 logical processors, using up to 8 threads

Optimize a model with 2488 rows, 554 columns and 46127 nonzeros
Model fingerprint: 0xbf63686b
Variable types: 248 continuous, 306 integer (306 binary)
Coefficient statistics:
  Matrix range     [4e-01, 1e+05]
  Objective range  [1e+00, 1e+02]
  Bounds range     [1e+00, 1e+00]
  RHS range        [1e-02, 1e+05]

User MIP start produced solution with objective 75597.6 (0.01s)
User MIP start produced solution with objective 75597.6 (0.01s)
Loaded user MIP start with objective 75597.6

Presolve removed 193 rows and 174 columns
Presolve time: 0.06s
Presolved: 2295 rows, 380 columns, 44212 nonzeros
Variable types: 230 continuous, 150 integer (147 binary)

Root relaxation: objective 7.565413e+04, 525 iterations, 0.04 seconds (0.07 work units)

    Nodes    |    Current Node    |     Objective Bounds      |     Work
 Expl Unexpl |  Obj  Depth IntInf | Incumbent    BestBd   Gap | It/Node Time

     0     0 75654.1337    0    2 75597.5639 75654.1337  0.07%     -    0s
     0     0 75654.1337    0    2 75597.5639 75654.1337  0.07%     -    0s
     0     0 infeasible    0      75597.5639 75597.5639  0.00%     -    0s

Explored 1 nodes (1065 simplex iterations) in 0.43 seconds (0.55 work units)
Thread count was 8 (of 8 available processors)

Solution count 2: 75597.6 75597.6 

Optimal solution found (tolerance 1.00e-04)
Best objective 7.559756391011e+04, best bound 7.559756391011e+04, gap 0.0000%
